(set-info :origin "Certificate generated by kind2 v0.1.1-1043-gbbab5ba")
(set-info :input "/Users/alain/dev/kind2-certif-report/doc/add_two.lus.frontend_certificate.kind2")
(set-info :status unsat)

(set-info :init  __I__)
(set-info :trans __T__)
(set-info :prop  __P__)

(set-info :certif "(1 , __PHI__)")



;===============================================================================
; INPUT SYSTEM :
;===============================================================================



;-------------------------------------------------------------------------------
; Constants :
;-------------------------------------------------------------------------------



;-------------------------------------------------------------------------------
; State variables :
;-------------------------------------------------------------------------------

(declare-fun transSys.x_is_init_x (Int) Bool)
(declare-fun OBS.main.a (Int) Real)
(declare-fun OBS.main.b (Int) Real)
(declare-fun OBS.main.c (Int) Real)
(declare-fun OBS.main.p1 (Int) Bool)
(declare-fun OBS.jKind.$a$ (Int) Real)
(declare-fun OBS.jKind.$b$ (Int) Real)
(declare-fun OBS.jKind.$c$ (Int) Real)
(declare-fun OBS.jKind.$p1$ (Int) Bool)


;-------------------------------------------------------------------------------
; Function symbols :
;-------------------------------------------------------------------------------

(define-fun
 __node_init_main
 ((transSys.x_is_init_x@0 Bool) (main.a@0 Real) (main.b@0 Real) (main.c@0 Real) (main.p1@0 Bool))
 Bool
 (and
  transSys.x_is_init_x@0
  (= main.c@0 (+ main.a@0 main.b@0))
  (= main.p1@0 (=> (and (> main.a@0 0.0) (> main.b@0 0.0)) (> main.c@0 0.0)))))

(define-fun
 __node_trans_main
 ((transSys.x_is_init_x@1 Bool)
  (main.a@1 Real)
  (main.b@1 Real)
  (main.c@1 Real)
  (main.p1@1 Bool)
  (transSys.x_is_init_x@0 Bool)
  (main.a@0 Real)
  (main.b@0 Real)
  (main.c@0 Real)
  (main.p1@0 Bool))
 Bool
 (and
  (not transSys.x_is_init_x@1)
  (= main.c@1 (+ main.a@1 main.b@1))
  (= main.p1@1 (=> (and (> main.a@1 0.0) (> main.b@1 0.0)) (> main.c@1 0.0)))))

(define-fun
 __node_init_jKind
 ((jKind.$a$@0 Real) (jKind.$b$@0 Real) (jKind.$c$@0 Real) (jKind.$p1$@0 Bool))
 Bool
 (and
  (= jKind.$c$@0 (+ jKind.$a$@0 jKind.$b$@0))
  (= jKind.$p1$@0 (=> (and (> jKind.$a$@0 0.0) (> jKind.$b$@0 0.0)) (> jKind.$c$@0 0.0)))))

(define-fun
 __node_trans_jKind
 ((jKind.$a$@1 Real)
  (jKind.$b$@1 Real)
  (jKind.$c$@1 Real)
  (jKind.$p1$@1 Bool)
  (jKind.$a$@0 Real)
  (jKind.$b$@0 Real)
  (jKind.$c$@0 Real)
  (jKind.$p1$@0 Bool))
 Bool
 (and
  (= jKind.$c$@1 (+ jKind.$a$@1 jKind.$b$@1))
  (= jKind.$p1$@1 (=> (and (> jKind.$a$@1 0.0) (> jKind.$b$@1 0.0)) (> jKind.$c$@1 0.0)))))

(define-fun
 __node_init_OBS
 ((transSys.x_is_init_x@0 Bool)
  (OBS.main.a@0 Real)
  (OBS.main.b@0 Real)
  (OBS.main.c@0 Real)
  (OBS.main.p1@0 Bool)
  (OBS.jKind.$a$@0 Real)
  (OBS.jKind.$b$@0 Real)
  (OBS.jKind.$c$@0 Real)
  (OBS.jKind.$p1$@0 Bool))
 Bool
 (and
  transSys.x_is_init_x@0
  (and (= OBS.main.a@0 OBS.jKind.$a$@0) (= OBS.main.b@0 OBS.jKind.$b$@0))
  (__node_init_main transSys.x_is_init_x@0 OBS.main.a@0 OBS.main.b@0 OBS.main.c@0 OBS.main.p1@0)
  (__node_init_jKind OBS.jKind.$a$@0 OBS.jKind.$b$@0 OBS.jKind.$c$@0 OBS.jKind.$p1$@0)))

(define-fun
 __node_trans_OBS
 ((transSys.x_is_init_x@1 Bool)
  (OBS.main.a@1 Real)
  (OBS.main.b@1 Real)
  (OBS.main.c@1 Real)
  (OBS.main.p1@1 Bool)
  (OBS.jKind.$a$@1 Real)
  (OBS.jKind.$b$@1 Real)
  (OBS.jKind.$c$@1 Real)
  (OBS.jKind.$p1$@1 Bool)
  (transSys.x_is_init_x@0 Bool)
  (OBS.main.a@0 Real)
  (OBS.main.b@0 Real)
  (OBS.main.c@0 Real)
  (OBS.main.p1@0 Bool)
  (OBS.jKind.$a$@0 Real)
  (OBS.jKind.$b$@0 Real)
  (OBS.jKind.$c$@0 Real)
  (OBS.jKind.$p1$@0 Bool))
 Bool
 (and
  (not transSys.x_is_init_x@1)
  (and (= OBS.main.a@1 OBS.jKind.$a$@1) (= OBS.main.b@1 OBS.jKind.$b$@1))
  (__node_trans_main
   transSys.x_is_init_x@1
   OBS.main.a@1
   OBS.main.b@1
   OBS.main.c@1
   OBS.main.p1@1
   transSys.x_is_init_x@0
   OBS.main.a@0
   OBS.main.b@0
   OBS.main.c@0
   OBS.main.p1@0)
  (__node_trans_jKind
   OBS.jKind.$a$@1
   OBS.jKind.$b$@1
   OBS.jKind.$c$@1
   OBS.jKind.$p1$@1
   OBS.jKind.$a$@0
   OBS.jKind.$b$@0
   OBS.jKind.$c$@0
   OBS.jKind.$p1$@0)))



;-------------------------------------------------------------------------------
; Initial states :
;-------------------------------------------------------------------------------

(define-fun
 __I__
 ((i Int))
 Bool
 (and
  (transSys.x_is_init_x i)
  (and (= (OBS.main.a i) (OBS.jKind.$a$ i)) (= (OBS.main.b i) (OBS.jKind.$b$ i)))
  (__node_init_main (transSys.x_is_init_x i) (OBS.main.a i) (OBS.main.b i) (OBS.main.c i) (OBS.main.p1 i))
  (__node_init_jKind (OBS.jKind.$a$ i) (OBS.jKind.$b$ i) (OBS.jKind.$c$ i) (OBS.jKind.$p1$ i))))



;-------------------------------------------------------------------------------
; Original property :
;-------------------------------------------------------------------------------

(define-fun
 __P__
 ((i Int))
 Bool
 (and
  (= (OBS.main.p1 i) (OBS.jKind.$p1$ i))
  (= (OBS.main.a i) (OBS.jKind.$a$ i))
  (= (OBS.main.b i) (OBS.jKind.$b$ i))
  (= (OBS.main.c i) (OBS.jKind.$c$ i))))



;-------------------------------------------------------------------------------
; Transition_relation :
;-------------------------------------------------------------------------------

(define-fun
 __T__
 ((i Int) (j Int))
 Bool
 (__node_trans_OBS
  (transSys.x_is_init_x j)
  (OBS.main.a j)
  (OBS.main.b j)
  (OBS.main.c j)
  (OBS.main.p1 j)
  (OBS.jKind.$a$ j)
  (OBS.jKind.$b$ j)
  (OBS.jKind.$c$ j)
  (OBS.jKind.$p1$ j)
  (transSys.x_is_init_x i)
  (OBS.main.a i)
  (OBS.main.b i)
  (OBS.main.c i)
  (OBS.main.p1 i)
  (OBS.jKind.$a$ i)
  (OBS.jKind.$b$ i)
  (OBS.jKind.$c$ i)
  (OBS.jKind.$p1$ i)))



;-------------------------------------------------------------------------------
; 1-Inductive invariant :
;-------------------------------------------------------------------------------

(define-fun
 __PHI__
 ((i Int))
 Bool
 (and
  (= (OBS.main.p1 i) (OBS.jKind.$p1$ i))
  (= (OBS.main.a i) (OBS.jKind.$a$ i))
  (= (OBS.main.b i) (OBS.jKind.$b$ i))
  (= (OBS.main.c i) (OBS.jKind.$c$ i))))



;===============================================================================
; CERTIFICATE CHECKER :
;===============================================================================



;-------------------------------------------------------------------------------
; Base case :
;-------------------------------------------------------------------------------

(echo "Checking base case")

(push 1)
(assert (and (__I__ 0) (not (__PHI__ 0))))
(check-sat)
(pop 1)



;-------------------------------------------------------------------------------
; 1-Inductiveness :
;-------------------------------------------------------------------------------

(echo "Checking 1-inductive case")

(push 1)
(assert (and (__PHI__ 0) (__T__ 0 1)))
(assert (not (__PHI__ 1)))
(check-sat)
(pop 1)



;-------------------------------------------------------------------------------
; Property subsumption :
;-------------------------------------------------------------------------------

(echo "Checking property subsumption")

(push 1)
(declare-fun __C0 () Int)
(assert (not (=> (__PHI__ __C0) (__P__ __C0))))
(check-sat)
(pop 1)

(exit)
